data/results/2026_03_23_16_17_34_set_ds_1_ds_1_s005_g001_max.sol
# Objective value = 114
c_n0n1n4n11 3
c_n0n4n7n10 3
c_n3n4n5n6n9 5
c_n4n5n11 3
c_n0n1n8n11n14 5
c_n0n10n14 3
c_n1n4n11 3
c_n0n4n11 2
c_n0n1n11 2
c_n0n1n4 1
c_n4n7n10 2
c_n0n7n10 3
c_n0n4n10 2
c_n0n4n7 1
c_n4n5n6n9 3
c_n3n5n6n9 4
c_n3n4n6n9 3
c_n3n4n5n9 3
c_n3n4n5n6 4
c_n1n8n11n14 4
c_n0n8n11n14 3
c_n0n1n11n14 3
c_n0n1n8n14 4
c_n0n1n8n11 3
c_n5n6n9 2
c_n4n6n9 2
c_n4n5n9 2
c_n4n5n6 2
c_n3n6n9 3
c_n3n5n9 2
c_n3n5n6 3
c_n3n4n9 1
c_n3n4n6 2
c_n3n4n5 3
c_n8n11n14 2
c_n1n11n14 2
c_n1n8n14 3
c_n1n8n11 3
c_n0n11n14 2
c_n0n8n14 3
c_n0n8n11 1
c_n0n1n14 2
c_n0n1n8 2
y_n0n1 1
y_n1n2 1
y_n0n2 1
y_n1n3 1
y_n0n3 1
y_n1n4 1
y_n0n4 1
y_n1n5 1
y_n0n5 1
y_n1n6 1
y_n0n6 1
y_n1n7 0
y_n0n7 0
y_n1n8 0
y_n0n8 1
y_n1n9 1
y_n0n9 1
y_n1n10 0
y_n0n10 0
y_n1n11 1
y_n0n11 1
y_n1n12 1
y_n0n12 1
y_n1n13 1
y_n0n13 1
y_n1n14 0
y_n0n14 1
y_n2n3 0
y_n2n4 0
y_n2n5 0
y_n2n6 0
y_n2n7 0
y_n2n8 0
y_n2n9 0
y_n2n10 0
y_n2n11 0
y_n2n12 0
y_n2n13 0
y_n2n14 0
y_n3n4 0
y_n3n5 0
y_n3n6 1
y_n3n7 0
y_n3n8 0
y_n3n9 1
y_n3n10 0
y_n3n11 0
y_n3n12 1
y_n3n13 1
y_n3n14 0
y_n4n5 1
y_n4n6 1
y_n4n7 0
y_n4n8 0
y_n4n9 1
y_n4n10 0
y_n4n11 0
y_n4n12 1
y_n4n13 1
y_n4n14 0
y_n5n6 1
y_n5n7 0
y_n5n8 0
y_n5n9 1
y_n5n10 0
y_n5n11 0
y_n5n12 1
y_n5n13 1
y_n5n14 0
y_n6n7 0
y_n6n8 0
y_n6n9 1
y_n6n10 0
y_n6n11 0
y_n6n12 1
y_n6n13 1
y_n6n14 0
y_n7n8 1
y_n7n9 1
y_n7n10 1
y_n7n11 1
y_n7n12 1
y_n7n13 1
y_n7n14 1
y_n8n9 1
y_n8n10 0
y_n8n11 1
y_n8n12 1
y_n8n13 1
y_n8n14 0
y_n9n10 0
y_n9n11 0
y_n9n12 1
y_n9n13 1
y_n9n14 0
y_n10n11 1
y_n10n12 1
y_n10n13 1
y_n10n14 1
y_n11n12 1
y_n11n13 1
y_n11n14 0
y_n12n13 0
y_n12n14 0
y_n13n14 0
pos_n0 2
pos_n1 5
pos_n2 14
pos_n3 9
pos_n4 7
pos_n5 8
pos_n6 10
pos_n7 0
pos_n8 4
pos_n9 11
pos_n10 1
pos_n11 6
pos_n12 13
pos_n13 12
pos_n14 3
z_n4n10 0
z_n7n10 1
z_n10n14 0
z_n8n10 0
z_n1n10 0
z_n10n11 0
z_n4n7 0
z_n4n14 0
z_n4n8 0
z_n1n4 0
z_n4n11 1
z_n7n14 0
z_n7n8 0
z_n1n7 0
z_n7n11 0
z_n8n14 1
z_n1n14 0
z_n11n14 0
z_n1n8 1
z_n8n11 0
z_n1n11 1
z_n0n14 1
z_n0n8 0
z_n0n11 0
z_n0n4 0
z_n5n7 0
z_n5n12 0
z_n7n12 0
z_n4n5 1
z_n4n9 0
z_n4n6 0
z_n5n9 0
z_n5n6 0
z_n6n9 1
z_n0n10 1
z_n5n10 0
z_n3n10 0
z_n9n10 0
z_n6n10 0
z_n0n7 0
z_n0n5 0
z_n0n3 0
z_n0n9 0
z_n0n6 0
z_n0n1 0
z_n3n7 0
z_n7n9 0
z_n6n7 0
z_n3n5 1
z_n1n5 0
z_n5n11 0
z_n3n9 0
z_n3n6 1
z_n1n3 0
z_n3n11 0
z_n1n9 0
z_n9n11 0
z_n1n6 0
z_n6n11 0
z_n3n4 0
z_n2n4 0
z_n2n3 0
z_n2n9 0
z_n2n6 0
z_n2n11 0
z_n5n14 0
z_n3n14 0
z_n9n14 0
z_n2n10 0
z_n0n2 0
z_n5n8 0
z_n2n13 0
z_n6n8 0
